p cnf 258 345
1 2 3 4 0
-1 -2 0
-1 -3 0
-1 -4 0
-2 -3 0
-2 -4 0
-3 -4 0
5 6 7 8 0
-5 -6 0
-5 -7 0
-5 -8 0
-6 -7 0
-6 -8 0
-7 -8 0
9 10 11 12 0
-9 -10 0
-9 -11 0
-9 -12 0
-10 -11 0
-10 -12 0
-11 -12 0
13 14 15 16 0
-13 -14 0
-13 -15 0
-13 -16 0
-14 -15 0
-14 -16 0
-15 -16 0
17 18 0
-17 -18 0
19 20 0
-19 -20 0
21 22 0
-21 -22 0
23 24 0
-23 -24 0
25 26 27 28 0
-25 -26 0
-25 -27 0
-25 -28 0
-26 -27 0
-26 -28 0
-27 -28 0
29 30 31 32 0
-29 -30 0
-29 -31 0
-29 -32 0
-30 -31 0
-30 -32 0
-31 -32 0
33 34 35 36 0
-33 -34 0
-33 -35 0
-33 -36 0
-34 -35 0
-34 -36 0
-35 -36 0
37 38 0
-37 -38 0
39 40 0
-39 -40 0
41 42 0
-41 -42 0
43 44 0
-43 -44 0
45 46 0
-45 -46 0
47 48 0
-47 -48 0
49 50 0
-49 -50 0
51 52 53 54 0
-51 -52 0
-51 -53 0
-51 -54 0
-52 -53 0
-52 -54 0
-53 -54 0
55 56 57 58 0
-55 -56 0
-55 -57 0
-55 -58 0
-56 -57 0
-56 -58 0
-57 -58 0
59 60 0
-59 -60 0
61 62 0
-61 -62 0
63 64 0
-63 -64 0
65 66 0
-65 -66 0
67 68 0
-67 -68 0
69 70 0
-69 -70 0
71 72 0
-71 -72 0
73 74 0
-73 -74 0
75 76 77 78 0
-75 -76 0
-75 -77 0
-75 -78 0
-76 -77 0
-76 -78 0
-77 -78 0
79 80 81 82 0
-79 -80 0
-79 -81 0
-79 -82 0
-80 -81 0
-80 -82 0
-81 -82 0
83 84 0
-83 -84 0
85 86 87 88 0
-85 -86 0
-85 -87 0
-85 -88 0
-86 -87 0
-86 -88 0
-87 -88 0
89 90 0
-89 -90 0
91 92 93 94 0
-91 -92 0
-91 -93 0
-91 -94 0
-92 -93 0
-92 -94 0
-93 -94 0
95 96 0
-95 -96 0
97 98 0
-97 -98 0
99 100 0
-99 -100 0
101 102 0
-101 -102 0
103 104 0
-103 -104 0
105 106 0
-105 -106 0
107 108 0
-107 -108 0
109 110 0
-109 -110 0
111 112 0
-111 -112 0
113 114 0
-113 -114 0
115 116 0
-115 -116 0
117 118 0
-117 -118 0
119 120 0
-119 -120 0
121 122 0
-121 -122 0
123 124 0
-123 -124 0
125 126 127 128 0
-125 -126 0
-125 -127 0
-125 -128 0
-126 -127 0
-126 -128 0
-127 -128 0
129 130 0
-129 -130 0
131 132 0
-131 -132 0
133 134 0
-133 -134 0
135 136 0
-135 -136 0
137 138 0
-137 -138 0
139 140 0
-139 -140 0
141 142 143 144 0
-141 -142 0
-141 -143 0
-141 -144 0
-142 -143 0
-142 -144 0
-143 -144 0
145 146 147 148 0
-145 -146 0
-145 -147 0
-145 -148 0
-146 -147 0
-146 -148 0
-147 -148 0
149 150 0
-149 -150 0
151 152 153 154 0
-151 -152 0
-151 -153 0
-151 -154 0
-152 -153 0
-152 -154 0
-153 -154 0
155 156 0
-155 -156 0
157 158 0
-157 -158 0
159 160 0
-159 -160 0
161 162 0
-161 -162 0
163 164 0
-163 -164 0
165 166 0
-165 -166 0
167 168 0
-167 -168 0
169 170 171 172 0
-169 -170 0
-169 -171 0
-169 -172 0
-170 -171 0
-170 -172 0
-171 -172 0
173 174 0
-173 -174 0
175 176 0
-175 -176 0
177 178 0
-177 -178 0
179 180 0
-179 -180 0
181 182 0
-181 -182 0
183 184 0
-183 -184 0
185 186 0
-185 -186 0
187 188 0
-187 -188 0
189 190 0
-189 -190 0
191 192 0
-191 -192 0
193 194 0
-193 -194 0
195 196 0
-195 -196 0
197 198 0
-197 -198 0
199 200 201 202 0
-199 -200 0
-199 -201 0
-199 -202 0
-200 -201 0
-200 -202 0
-201 -202 0
203 204 205 206 0
-203 -204 0
-203 -205 0
-203 -206 0
-204 -205 0
-204 -206 0
-205 -206 0
207 208 209 210 0
-207 -208 0
-207 -209 0
-207 -210 0
-208 -209 0
-208 -210 0
-209 -210 0
211 212 213 214 0
-211 -212 0
-211 -213 0
-211 -214 0
-212 -213 0
-212 -214 0
-213 -214 0
215 216 217 218 0
-215 -216 0
-215 -217 0
-215 -218 0
-216 -217 0
-216 -218 0
-217 -218 0
219 220 0
-219 -220 0
221 222 223 224 0
-221 -222 0
-221 -223 0
-221 -224 0
-222 -223 0
-222 -224 0
-223 -224 0
225 226 0
-225 -226 0
227 228 0
-227 -228 0
229 230 231 232 0
-229 -230 0
-229 -231 0
-229 -232 0
-230 -231 0
-230 -232 0
-231 -232 0
233 234 0
-233 -234 0
235 236 0
-235 -236 0
237 238 239 240 0
-237 -238 0
-237 -239 0
-237 -240 0
-238 -239 0
-238 -240 0
-239 -240 0
241 242 0
-241 -242 0
243 244 0
-243 -244 0
245 246 0
-245 -246 0
247 248 249 250 0
-247 -248 0
-247 -249 0
-247 -250 0
-248 -249 0
-248 -250 0
-249 -250 0
251 252 253 254 0
-251 -252 0
-251 -253 0
-251 -254 0
-252 -253 0
-252 -254 0
-253 -254 0
255 256 257 258 0
-255 -256 0
-255 -257 0
-255 -258 0
-256 -257 0
-256 -258 0
-257 -258 0
